203 204 202 201 200 199 198 205 206 207 208 209 210 211 212 213 214 215 216 217 223 224 222 221 220 218 219 193 194 195 196 197 184 185 183 182 186 192 191 190 226 225 189 227 228 229 230 231 533 532 489 531 530 233 232 234 235 236 237 240 239 238 246 247 245 244 243 242 248 249 250 251 252 254 253 255 256 257 260 261 259 258 262 263 264 265 266 267 271 272 269 268 270 296 295 294 293 291 292 273 274 275 290 289 288 276 277 278 279 282 281 280 287 286 285 284 283 334 335 336 337 338 339 333 332 331 330 340 341 342 343 344 345 346 364 363 362 347 348 349 350 351 415 416 414 413 352 353 354 355 356 357 358 359 361 360 401 402 403 412 411 410 418 417 419 420 421 422 423 424 425 426 427 428 429 430 432 433 434 435 436 437 438 454 455 456 457 458 459 460 461 462 463 464 465 466 467 468 469 470 496 497 498 499 452 453 500 501 502 503 504 505 308 309 310 311 312 451 450 449 448 447 446 442 441 440 439 443 444 445 431 382 383 384 409 404 405 406 400 399 407 408 385 386 387 388 389 390 381 392 391 393 394 397 398 395 396 371 372 370 369 368 365 367 366 329 328 327 326 325 324 323 322 373 374 375 376 379 380 378 377 315 314 316 313 305 306 318 317 319 320 321 297 298 299 300 241 301 302 303 304 307 508 507 506 516 515 514 513 509 510 511 512 527 528 529 490 491 493 524 525 492 526 523 521 522 517 520 519 518 494 495 471 472 473 474 475 476 477 478 479 480 481 482 483 484 485 486 488 534 487 535 536 537 539 538 540 188 187 178 179 181 180 169 171 170 175 177 176 174 173 172 108 109 107 110 111 114 115 116 117 106 105 104 103 542 541 543 544 547 546 545 548 549 560 561 562 563 564 565 566 567 27 26 25 24 21 20 19 568 569 570 571 572 573 0 1 2 3 4 5 6 7 8 17 18 16 9 10 11 15 14 13 12 23 22 28 29 30 32 31 36 37 38 33 34 35 40 41 39 42 43 48 47 44 45 46 555 556 557 558 559 550 551 101 102 100 99 552 553 554 98 96 95 97 94 93 89 88 87 90 92 91 85 86 84 51 52 50 49 54 53 55 56 83 82 57 58 59 60 81 80 79 61 63 62 78 77 76 64 75 74 73 119 118 120 121 122 123 71 72 65 66 67 68 70 69 124 125 126 127 128 129 130 131 132 133 134 135 136 137 138 139 140 141 144 143 142 151 150 149 152 148 147 146 145 158 157 159 156 155 153 154 160 113 112 161 162 168 163 167 166 164 165